p cnf 200 1110
-101 35 0
-101 -44 0
-101 -33 0
-101 8 0
-101 65 0
-101 89 0
-101 -78 0
-101 92 0
-101 -85 0
-101 67 0
101 -35 44 33 -8 -65 -89 78 -92 85 -67 0
-102 -50 0
-102 71 0
-102 -45 0
-102 100 0
-102 -15 0
-102 59 0
-102 -93 0
-102 -16 0
-102 75 0
-102 -51 0
102 50 -71 45 -100 15 -59 93 16 -75 51 0
-103 75 0
-103 50 0
-103 17 0
-103 -21 0
-103 -60 0
-103 58 0
-103 66 0
-103 37 0
-103 12 0
-103 -39 0
103 -75 -50 -17 21 60 -58 -66 -37 -12 39 0
-104 -33 0
-104 16 0
-104 -44 0
-104 -90 0
-104 99 0
-104 -21 0
-104 51 0
-104 77 0
-104 -71 0
-104 -54 0
104 33 -16 44 90 -99 21 -51 -77 71 54 0
-105 -52 0
-105 -61 0
-105 65 0
-105 31 0
-105 6 0
-105 67 0
-105 39 0
-105 -17 0
-105 -44 0
-105 70 0
105 52 61 -65 -31 -6 -67 -39 17 44 -70 0
-106 -51 0
-106 60 0
-106 40 0
-106 38 0
-106 1 0
-106 97 0
-106 -27 0
-106 -55 0
-106 31 0
-106 81 0
106 51 -60 -40 -38 -1 -97 27 55 -31 -81 0
-107 -15 0
-107 27 0
-107 40 0
-107 -100 0
-107 -19 0
-107 -99 0
-107 -12 0
-107 29 0
-107 75 0
-107 42 0
107 15 -27 -40 100 19 99 12 -29 -75 -42 0
-108 -58 0
-108 48 0
-108 -80 0
-108 76 0
-108 -68 0
-108 75 0
-108 -11 0
-108 -40 0
-108 69 0
-108 19 0
108 58 -48 80 -76 68 -75 11 40 -69 -19 0
-109 -99 0
-109 -82 0
-109 -73 0
-109 -65 0
-109 90 0
-109 -37 0
-109 85 0
-109 -26 0
-109 28 0
-109 69 0
109 99 82 73 65 -90 37 -85 26 -28 -69 0
-110 -68 0
-110 65 0
-110 -87 0
-110 -6 0
-110 -62 0
-110 48 0
-110 -59 0
-110 -22 0
-110 -56 0
-110 82 0
110 68 -65 87 6 62 -48 59 22 56 -82 0
101 102 103 104 105 106 107 108 109 110 0
-111 39 0
-111 94 0
-111 53 0
-111 -84 0
-111 6 0
-111 11 0
-111 -22 0
-111 -42 0
-111 -31 0
-111 -19 0
111 -39 -94 -53 84 -6 -11 22 42 31 19 0
-112 76 0
-112 19 0
-112 -60 0
-112 58 0
-112 78 0
-112 -4 0
-112 -98 0
-112 23 0
-112 -41 0
-112 -92 0
112 -76 -19 60 -58 -78 4 98 -23 41 92 0
-113 -13 0
-113 -9 0
-113 -4 0
-113 57 0
-113 -18 0
-113 -8 0
-113 -16 0
-113 -35 0
-113 28 0
-113 20 0
113 13 9 4 -57 18 8 16 35 -28 -20 0
-114 -68 0
-114 79 0
-114 14 0
-114 -99 0
-114 25 0
-114 28 0
-114 -55 0
-114 31 0
-114 66 0
-114 -21 0
114 68 -79 -14 99 -25 -28 55 -31 -66 21 0
-115 30 0
-115 2 0
-115 44 0
-115 -36 0
-115 46 0
-115 -100 0
-115 -99 0
-115 48 0
-115 98 0
-115 -40 0
115 -30 -2 -44 36 -46 100 99 -48 -98 40 0
-116 23 0
-116 -76 0
-116 -24 0
-116 -74 0
-116 -88 0
-116 -86 0
-116 -34 0
-116 81 0
-116 46 0
-116 -80 0
116 -23 76 24 74 88 86 34 -81 -46 80 0
-117 100 0
-117 -66 0
-117 84 0
-117 33 0
-117 47 0
-117 -95 0
-117 92 0
-117 56 0
-117 -25 0
-117 69 0
117 -100 66 -84 -33 -47 95 -92 -56 25 -69 0
-118 57 0
-118 95 0
-118 -18 0
-118 94 0
-118 -59 0
-118 82 0
-118 -96 0
-118 -99 0
-118 -83 0
-118 77 0
118 -57 -95 18 -94 59 -82 96 99 83 -77 0
-119 -55 0
-119 62 0
-119 88 0
-119 -29 0
-119 -81 0
-119 17 0
-119 6 0
-119 78 0
-119 -34 0
-119 -73 0
119 55 -62 -88 29 81 -17 -6 -78 34 73 0
-120 74 0
-120 5 0
-120 21 0
-120 -19 0
-120 -35 0
-120 4 0
-120 -85 0
-120 69 0
-120 -11 0
-120 61 0
120 -74 -5 -21 19 35 -4 85 -69 11 -61 0
111 112 113 114 115 116 117 118 119 120 0
-121 -97 0
-121 -96 0
-121 -2 0
-121 64 0
-121 -7 0
-121 -68 0
-121 -29 0
-121 40 0
-121 -75 0
-121 76 0
121 97 96 2 -64 7 68 29 -40 75 -76 0
-122 23 0
-122 -36 0
-122 -10 0
-122 100 0
-122 31 0
-122 98 0
-122 25 0
-122 90 0
-122 48 0
-122 -73 0
122 -23 36 10 -100 -31 -98 -25 -90 -48 73 0
-123 -89 0
-123 -71 0
-123 -41 0
-123 31 0
-123 83 0
-123 77 0
-123 40 0
-123 67 0
-123 -80 0
-123 -1 0
123 89 71 41 -31 -83 -77 -40 -67 80 1 0
-124 63 0
-124 -60 0
-124 86 0
-124 -15 0
-124 -31 0
-124 -12 0
-124 13 0
-124 -21 0
-124 65 0
-124 -62 0
124 -63 60 -86 15 31 12 -13 21 -65 62 0
-125 14 0
-125 67 0
-125 91 0
-125 23 0
-125 3 0
-125 73 0
-125 4 0
-125 44 0
-125 96 0
-125 50 0
125 -14 -67 -91 -23 -3 -73 -4 -44 -96 -50 0
-126 -96 0
-126 2 0
-126 -19 0
-126 -34 0
-126 95 0
-126 84 0
-126 93 0
-126 29 0
-126 35 0
-126 85 0
126 96 -2 19 34 -95 -84 -93 -29 -35 -85 0
-127 -46 0
-127 94 0
-127 -29 0
-127 3 0
-127 -56 0
-127 -72 0
-127 84 0
-127 -76 0
-127 47 0
-127 -100 0
127 46 -94 29 -3 56 72 -84 76 -47 100 0
-128 64 0
-128 47 0
-128 -38 0
-128 -96 0
-128 50 0
-128 -87 0
-128 -53 0
-128 88 0
-128 75 0
-128 35 0
128 -64 -47 38 96 -50 87 53 -88 -75 -35 0
-129 49 0
-129 13 0
-129 -32 0
-129 -60 0
-129 -26 0
-129 -44 0
-129 -36 0
-129 -46 0
-129 -95 0
-129 -51 0
129 -49 -13 32 60 26 44 36 46 95 51 0
-130 -2 0
-130 30 0
-130 -20 0
-130 68 0
-130 94 0
-130 29 0
-130 23 0
-130 8 0
-130 19 0
-130 -47 0
130 2 -30 20 -68 -94 -29 -23 -8 -19 47 0
121 122 123 124 125 126 127 128 129 130 0
-131 -27 0
-131 19 0
-131 97 0
-131 -81 0
-131 37 0
-131 66 0
-131 -90 0
-131 3 0
-131 84 0
-131 -25 0
131 27 -19 -97 81 -37 -66 90 -3 -84 25 0
-132 -38 0
-132 77 0
-132 29 0
-132 -69 0
-132 67 0
-132 -95 0
-132 -14 0
-132 -25 0
-132 -48 0
-132 47 0
132 38 -77 -29 69 -67 95 14 25 48 -47 0
-133 -86 0
-133 16 0
-133 -89 0
-133 -20 0
-133 69 0
-133 19 0
-133 -25 0
-133 64 0
-133 5 0
-133 68 0
133 86 -16 89 20 -69 -19 25 -64 -5 -68 0
-134 99 0
-134 62 0
-134 -89 0
-134 5 0
-134 96 0
-134 -12 0
-134 34 0
-134 -26 0
-134 78 0
-134 97 0
134 -99 -62 89 -5 -96 12 -34 26 -78 -97 0
-135 -17 0
-135 58 0
-135 68 0
-135 -7 0
-135 -93 0
-135 -22 0
-135 -44 0
-135 66 0
-135 78 0
-135 -59 0
135 17 -58 -68 7 93 22 44 -66 -78 59 0
-136 -59 0
-136 3 0
-136 8 0
-136 52 0
-136 -51 0
-136 -62 0
-136 36 0
-136 77 0
-136 -39 0
-136 76 0
136 59 -3 -8 -52 51 62 -36 -77 39 -76 0
-137 98 0
-137 29 0
-137 -21 0
-137 -89 0
-137 -37 0
-137 -32 0
-137 -55 0
-137 -6 0
-137 8 0
-137 -85 0
137 -98 -29 21 89 37 32 55 6 -8 85 0
-138 -18 0
-138 59 0
-138 -74 0
-138 -77 0
-138 -58 0
-138 -46 0
-138 -27 0
-138 -33 0
-138 71 0
-138 94 0
138 18 -59 74 77 58 46 27 33 -71 -94 0
-139 -16 0
-139 15 0
-139 81 0
-139 -96 0
-139 27 0
-139 -58 0
-139 80 0
-139 100 0
-139 -20 0
-139 -57 0
139 16 -15 -81 96 -27 58 -80 -100 20 57 0
-140 -16 0
-140 41 0
-140 -12 0
-140 -63 0
-140 -2 0
-140 68 0
-140 -77 0
-140 -21 0
-140 53 0
-140 69 0
140 16 -41 12 63 2 -68 77 21 -53 -69 0
131 132 133 134 135 136 137 138 139 140 0
-141 -73 0
-141 74 0
-141 -93 0
-141 57 0
-141 -47 0
-141 -56 0
-141 71 0
-141 65 0
-141 43 0
-141 7 0
141 73 -74 93 -57 47 56 -71 -65 -43 -7 0
-142 20 0
-142 -66 0
-142 73 0
-142 -28 0
-142 -75 0
-142 87 0
-142 -92 0
-142 57 0
-142 81 0
-142 -95 0
142 -20 66 -73 28 75 -87 92 -57 -81 95 0
-143 6 0
-143 31 0
-143 81 0
-143 100 0
-143 -48 0
-143 20 0
-143 76 0
-143 8 0
-143 71 0
-143 -32 0
143 -6 -31 -81 -100 48 -20 -76 -8 -71 32 0
-144 73 0
-144 95 0
-144 -83 0
-144 -52 0
-144 71 0
-144 27 0
-144 20 0
-144 9 0
-144 -97 0
-144 -6 0
144 -73 -95 83 52 -71 -27 -20 -9 97 6 0
-145 36 0
-145 33 0
-145 57 0
-145 31 0
-145 74 0
-145 30 0
-145 -29 0
-145 97 0
-145 40 0
-145 13 0
145 -36 -33 -57 -31 -74 -30 29 -97 -40 -13 0
-146 -78 0
-146 -94 0
-146 -68 0
-146 -36 0
-146 -21 0
-146 13 0
-146 -51 0
-146 23 0
-146 72 0
-146 80 0
146 78 94 68 36 21 -13 51 -23 -72 -80 0
-147 8 0
-147 74 0
-147 94 0
-147 -90 0
-147 67 0
-147 -96 0
-147 -36 0
-147 16 0
-147 -38 0
-147 33 0
147 -8 -74 -94 90 -67 96 36 -16 38 -33 0
-148 -59 0
-148 -52 0
-148 -45 0
-148 69 0
-148 -60 0
-148 -29 0
-148 91 0
-148 87 0
-148 15 0
-148 -20 0
148 59 52 45 -69 60 29 -91 -87 -15 20 0
-149 -30 0
-149 90 0
-149 63 0
-149 26 0
-149 -67 0
-149 86 0
-149 -32 0
-149 98 0
-149 -51 0
-149 -88 0
149 30 -90 -63 -26 67 -86 32 -98 51 88 0
-150 -3 0
-150 15 0
-150 -6 0
-150 49 0
-150 -29 0
-150 -52 0
-150 39 0
-150 7 0
-150 79 0
-150 54 0
150 3 -15 6 -49 29 52 -39 -7 -79 -54 0
141 142 143 144 145 146 147 148 149 150 0
-151 -56 0
-151 59 0
-151 -25 0
-151 76 0
-151 -29 0
-151 90 0
-151 45 0
-151 19 0
-151 -63 0
-151 -8 0
151 56 -59 25 -76 29 -90 -45 -19 63 8 0
-152 58 0
-152 4 0
-152 -1 0
-152 -60 0
-152 -37 0
-152 32 0
-152 82 0
-152 -30 0
-152 -3 0
-152 61 0
152 -58 -4 1 60 37 -32 -82 30 3 -61 0
-153 -18 0
-153 -98 0
-153 -80 0
-153 40 0
-153 -46 0
-153 -51 0
-153 -20 0
-153 9 0
-153 8 0
-153 81 0
153 18 98 80 -40 46 51 20 -9 -8 -81 0
-154 3 0
-154 5 0
-154 48 0
-154 -71 0
-154 -38 0
-154 -28 0
-154 51 0
-154 -12 0
-154 -79 0
-154 -95 0
154 -3 -5 -48 71 38 28 -51 12 79 95 0
-155 83 0
-155 29 0
-155 16 0
-155 74 0
-155 12 0
-155 25 0
-155 80 0
-155 78 0
-155 -5 0
-155 -19 0
155 -83 -29 -16 -74 -12 -25 -80 -78 5 19 0
-156 -100 0
-156 72 0
-156 20 0
-156 27 0
-156 -78 0
-156 59 0
-156 73 0
-156 46 0
-156 -6 0
-156 -42 0
156 100 -72 -20 -27 78 -59 -73 -46 6 42 0
-157 -51 0
-157 -44 0
-157 -47 0
-157 -27 0
-157 49 0
-157 21 0
-157 26 0
-157 1 0
-157 -58 0
-157 -24 0
157 51 44 47 27 -49 -21 -26 -1 58 24 0
-158 -99 0
-158 66 0
-158 13 0
-158 57 0
-158 -49 0
-158 5 0
-158 -77 0
-158 56 0
-158 -94 0
-158 -81 0
158 99 -66 -13 -57 49 -5 77 -56 94 81 0
-159 93 0
-159 -6 0
-159 -76 0
-159 67 0
-159 68 0
-159 -31 0
-159 -4 0
-159 95 0
-159 -25 0
-159 -26 0
159 -93 6 76 -67 -68 31 4 -95 25 26 0
-160 -62 0
-160 19 0
-160 -16 0
-160 -3 0
-160 -79 0
-160 6 0
-160 87 0
-160 81 0
-160 29 0
-160 -38 0
160 62 -19 16 3 79 -6 -87 -81 -29 38 0
151 152 153 154 155 156 157 158 159 160 0
-161 99 0
-161 -38 0
-161 92 0
-161 -16 0
-161 32 0
-161 -9 0
-161 -56 0
-161 -29 0
-161 85 0
-161 -64 0
161 -99 38 -92 16 -32 9 56 29 -85 64 0
-162 -18 0
-162 -100 0
-162 -36 0
-162 -56 0
-162 44 0
-162 19 0
-162 -9 0
-162 -82 0
-162 -87 0
-162 -12 0
162 18 100 36 56 -44 -19 9 82 87 12 0
-163 -80 0
-163 -100 0
-163 -6 0
-163 -58 0
-163 82 0
-163 35 0
-163 -83 0
-163 67 0
-163 96 0
-163 45 0
163 80 100 6 58 -82 -35 83 -67 -96 -45 0
-164 32 0
-164 10 0
-164 16 0
-164 4 0
-164 66 0
-164 78 0
-164 -81 0
-164 -60 0
-164 69 0
-164 -77 0
164 -32 -10 -16 -4 -66 -78 81 60 -69 77 0
-165 74 0
-165 85 0
-165 -38 0
-165 26 0
-165 -7 0
-165 27 0
-165 -88 0
-165 86 0
-165 42 0
-165 51 0
165 -74 -85 38 -26 7 -27 88 -86 -42 -51 0
-166 15 0
-166 -98 0
-166 -19 0
-166 -60 0
-166 -79 0
-166 -3 0
-166 73 0
-166 -51 0
-166 25 0
-166 -32 0
166 -15 98 19 60 79 3 -73 51 -25 32 0
-167 33 0
-167 -81 0
-167 -67 0
-167 8 0
-167 29 0
-167 12 0
-167 -92 0
-167 57 0
-167 -51 0
-167 2 0
167 -33 81 67 -8 -29 -12 92 -57 51 -2 0
-168 -30 0
-168 28 0
-168 77 0
-168 72 0
-168 -2 0
-168 39 0
-168 15 0
-168 -100 0
-168 75 0
-168 42 0
168 30 -28 -77 -72 2 -39 -15 100 -75 -42 0
-169 57 0
-169 -55 0
-169 -98 0
-169 85 0
-169 -31 0
-169 26 0
-169 -47 0
-169 -73 0
-169 -80 0
-169 -89 0
169 -57 55 98 -85 31 -26 47 73 80 89 0
-170 13 0
-170 -86 0
-170 -16 0
-170 55 0
-170 -50 0
-170 -1 0
-170 12 0
-170 75 0
-170 85 0
-170 15 0
170 -13 86 16 -55 50 1 -12 -75 -85 -15 0
161 162 163 164 165 166 167 168 169 170 0
-171 88 0
-171 48 0
-171 77 0
-171 -36 0
-171 100 0
-171 2 0
-171 28 0
-171 7 0
-171 49 0
-171 38 0
171 -88 -48 -77 36 -100 -2 -28 -7 -49 -38 0
-172 -41 0
-172 9 0
-172 -77 0
-172 85 0
-172 -39 0
-172 -82 0
-172 -40 0
-172 94 0
-172 -59 0
-172 -36 0
172 41 -9 77 -85 39 82 40 -94 59 36 0
-173 28 0
-173 -65 0
-173 -72 0
-173 -85 0
-173 18 0
-173 -56 0
-173 51 0
-173 61 0
-173 39 0
-173 -53 0
173 -28 65 72 85 -18 56 -51 -61 -39 53 0
-174 -11 0
-174 -1 0
-174 -44 0
-174 -37 0
-174 -18 0
-174 57 0
-174 54 0
-174 -70 0
-174 50 0
-174 94 0
174 11 1 44 37 18 -57 -54 70 -50 -94 0
-175 -46 0
-175 -50 0
-175 80 0
-175 -53 0
-175 41 0
-175 -73 0
-175 -76 0
-175 -65 0
-175 8 0
-175 -78 0
175 46 50 -80 53 -41 73 76 65 -8 78 0
-176 -26 0
-176 88 0
-176 -49 0
-176 -34 0
-176 -45 0
-176 -19 0
-176 -72 0
-176 -47 0
-176 4 0
-176 -40 0
176 26 -88 49 34 45 19 72 47 -4 40 0
-177 -67 0
-177 -42 0
-177 48 0
-177 79 0
-177 -25 0
-177 81 0
-177 34 0
-177 -93 0
-177 38 0
-177 -29 0
177 67 42 -48 -79 25 -81 -34 93 -38 29 0
-178 31 0
-178 -34 0
-178 -32 0
-178 12 0
-178 50 0
-178 72 0
-178 -19 0
-178 -91 0
-178 -67 0
-178 -73 0
178 -31 34 32 -12 -50 -72 19 91 67 73 0
-179 38 0
-179 53 0
-179 -56 0
-179 89 0
-179 35 0
-179 -46 0
-179 -34 0
-179 5 0
-179 -39 0
-179 -12 0
179 -38 -53 56 -89 -35 46 34 -5 39 12 0
-180 43 0
-180 56 0
-180 -83 0
-180 29 0
-180 67 0
-180 -13 0
-180 -75 0
-180 87 0
-180 -34 0
-180 -70 0
180 -43 -56 83 -29 -67 13 75 -87 34 70 0
171 172 173 174 175 176 177 178 179 180 0
-181 -68 0
-181 86 0
-181 -5 0
-181 64 0
-181 -14 0
-181 11 0
-181 76 0
-181 -25 0
-181 -42 0
-181 59 0
181 68 -86 5 -64 14 -11 -76 25 42 -59 0
-182 73 0
-182 33 0
-182 64 0
-182 -37 0
-182 -25 0
-182 5 0
-182 14 0
-182 7 0
-182 -78 0
-182 -2 0
182 -73 -33 -64 37 25 -5 -14 -7 78 2 0
-183 -35 0
-183 -47 0
-183 22 0
-183 11 0
-183 -27 0
-183 -79 0
-183 19 0
-183 41 0
-183 -93 0
-183 -14 0
183 35 47 -22 -11 27 79 -19 -41 93 14 0
-184 8 0
-184 -33 0
-184 27 0
-184 69 0
-184 18 0
-184 5 0
-184 -65 0
-184 15 0
-184 -39 0
-184 46 0
184 -8 33 -27 -69 -18 -5 65 -15 39 -46 0
-185 33 0
-185 -56 0
-185 -79 0
-185 -40 0
-185 -76 0
-185 -7 0
-185 -53 0
-185 -90 0
-185 -15 0
-185 -48 0
185 -33 56 79 40 76 7 53 90 15 48 0
-186 -58 0
-186 21 0
-186 -63 0
-186 89 0
-186 -50 0
-186 92 0
-186 -65 0
-186 -32 0
-186 -60 0
-186 86 0
186 58 -21 63 -89 50 -92 65 32 60 -86 0
-187 37 0
-187 -11 0
-187 -78 0
-187 18 0
-187 63 0
-187 71 0
-187 -66 0
-187 -38 0
-187 -81 0
-187 -93 0
187 -37 11 78 -18 -63 -71 66 38 81 93 0
-188 -89 0
-188 -100 0
-188 65 0
-188 63 0
-188 -15 0
-188 27 0
-188 85 0
-188 7 0
-188 -29 0
-188 99 0
188 89 100 -65 -63 15 -27 -85 -7 29 -99 0
-189 -50 0
-189 -2 0
-189 69 0
-189 -24 0
-189 -91 0
-189 -46 0
-189 98 0
-189 14 0
-189 -56 0
-189 -16 0
189 50 2 -69 24 91 46 -98 -14 56 16 0
-190 76 0
-190 -47 0
-190 3 0
-190 -51 0
-190 75 0
-190 79 0
-190 4 0
-190 -26 0
-190 -13 0
-190 11 0
190 -76 47 -3 51 -75 -79 -4 26 13 -11 0
181 182 183 184 185 186 187 188 189 190 0
-191 26 0
-191 90 0
-191 100 0
-191 25 0
-191 11 0
-191 -59 0
-191 29 0
-191 -63 0
-191 -13 0
-191 14 0
191 -26 -90 -100 -25 -11 59 -29 63 13 -14 0
-192 84 0
-192 38 0
-192 52 0
-192 -66 0
-192 -72 0
-192 -47 0
-192 -58 0
-192 -89 0
-192 34 0
-192 31 0
192 -84 -38 -52 66 72 47 58 89 -34 -31 0
-193 -23 0
-193 36 0
-193 24 0
-193 81 0
-193 41 0
-193 3 0
-193 29 0
-193 91 0
-193 88 0
-193 -63 0
193 23 -36 -24 -81 -41 -3 -29 -91 -88 63 0
-194 -70 0
-194 -36 0
-194 19 0
-194 54 0
-194 -18 0
-194 -63 0
-194 -37 0
-194 -4 0
-194 -55 0
-194 -51 0
194 70 36 -19 -54 18 63 37 4 55 51 0
-195 88 0
-195 89 0
-195 26 0
-195 -48 0
-195 77 0
-195 -72 0
-195 61 0
-195 -28 0
-195 17 0
-195 10 0
195 -88 -89 -26 48 -77 72 -61 28 -17 -10 0
-196 -84 0
-196 3 0
-196 -57 0
-196 76 0
-196 96 0
-196 -85 0
-196 -62 0
-196 64 0
-196 70 0
-196 39 0
196 84 -3 57 -76 -96 85 62 -64 -70 -39 0
-197 -89 0
-197 -28 0
-197 -6 0
-197 -81 0
-197 -88 0
-197 32 0
-197 56 0
-197 -54 0
-197 -75 0
-197 60 0
197 89 28 6 81 88 -32 -56 54 75 -60 0
-198 -68 0
-198 -51 0
-198 -20 0
-198 71 0
-198 -19 0
-198 67 0
-198 94 0
-198 -37 0
-198 -46 0
-198 -9 0
198 68 51 20 -71 19 -67 -94 37 46 9 0
-199 -85 0
-199 -1 0
-199 -58 0
-199 51 0
-199 -96 0
-199 35 0
-199 62 0
-199 5 0
-199 17 0
-199 11 0
199 85 1 58 -51 96 -35 -62 -5 -17 -11 0
-200 3 0
-200 -11 0
-200 -20 0
-200 39 0
-200 -16 0
-200 59 0
-200 91 0
-200 -88 0
-200 -89 0
-200 12 0
200 -3 11 20 -39 16 -59 -91 88 89 -12 0
191 192 193 194 195 196 197 198 199 200 0
